unknown
(:binary-propagations  1534
 :decisions            1397
 :del-clause           406
 :final-checks         6
 :max-generation       1
 :max-memory           27.81
 :memory               22.07
 :mk-bool-var          2589
 :mk-clause            668
 :mk-clause-binary     1668
 :num-allocs           131937211
 :num-checks           1
 :propagations         1789
 :quant-instantiations 421
 :restarts             5
 :rlimit-count         1543382
 :time                 0.30)
